(set-logic HORN)
(declare-fun state (Int Int (Array Int Int) Int Int (Array Int Int) Bool) Bool)
(assert (forall ((|A_0| Int) (|B_0| Int) (|E| (Array Int Int)) (|D_0| Int) (|C_0| Int) (|F| (Array Int Int)) (|.loc.8| Bool) (|.loc.15| Bool) (|.y.12| Int) (|.y.9| Int) (|.y.14| (Array Int Int)) (|.y.10| Int) (|.y.13| Int) (|.y.11| (Array Int Int))) (=> (and (and (and (and (= D_0 C_0) (= B_0 0)) (= A_0 D_0)) (= E F)) (not .loc.8)) (state |A_0| |B_0| |E| |D_0| |C_0| |F| |.loc.8|))))
(assert (forall ((|A_0| Int) (|B_0| Int) (|E| (Array Int Int)) (|D_0| Int) (|C_0| Int) (|F| (Array Int Int)) (|.loc.8| Bool) (|.loc.15| Bool) (|.y.12| Int) (|.y.9| Int) (|.y.14| (Array Int Int)) (|.y.10| Int) (|.y.13| Int) (|.y.11| (Array Int Int))) (=> (and (state |A_0| |B_0| |E| |D_0| |C_0| |F| |.loc.8|) (let ((.def_31 (= (select E (+ A_0 (* 4 B_0))) 0))) (let ((.def_33 (= (select F C_0) 0))) (let ((.def_49 (not .def_31))) (let ((.def_50 (not .def_33))) (let ((.def_52 (not .loc.15))) (let ((.def_55 (= D_0 .y.12))) (let ((.def_58 (= A_0 .y.9))) (let ((.def_62 (= (store F C_0 0) .y.14))) (let ((.def_68 (= (+ B_0 (* (- 1) .y.10)) (- 1)))) (let ((.def_74 (= (+ C_0 (* (- 1) .y.13)) (- 4)))) (let ((.def_78 (= (store E (+ A_0 (* 4 B_0)) 0) .y.11))) (and (not .loc.8) (or (or (or (and (and (and .def_31 .def_33) (or (not (= E F)) (not (= B_0 (to_int (+ (* (/ 1 4) (to_real C_0)) (* (- (/ 1 4)) (to_real D_0)))))))) .loc.15) (and (and (and (and (and (and (and (and .def_49 .def_50) .def_52) .def_55) .def_58) .def_62) .def_68) .def_74) .def_78)) (and (= C_0 .y.13) (and (= F .y.14) (and .def_78 (and .def_68 (and .def_58 (and .def_55 (and .def_52 (and .def_33 .def_49))))))))) (and (= B_0 .y.10) (and (= E .y.11) (and .def_74 (and .def_62 (and .def_58 (and .def_55 (and .def_52 (and .def_31 .def_50)))))))))))))))))))))) (state |.y.9| |.y.10| |.y.11| |.y.12| |.y.13| |.y.14| |.loc.15|))))
(assert (forall ((|A_0| Int) (|B_0| Int) (|E| (Array Int Int)) (|D_0| Int) (|C_0| Int) (|F| (Array Int Int)) (|.loc.8| Bool) (|.loc.15| Bool) (|.y.12| Int) (|.y.9| Int) (|.y.14| (Array Int Int)) (|.y.10| Int) (|.y.13| Int) (|.y.11| (Array Int Int))) (=> (state |A_0| |B_0| |E| |D_0| |C_0| |F| |.loc.8|) (not .loc.8))))
(check-sat)
